/* Tomasz Kulik */


data;
/* 
n - liczba miast;
T - maksymalny czas przejazdu 
*/
param n := 10;
param T := 14; 

/* Graf
A - łuki grafu skierowanego
c - koszt przejazdu 
t - czas przejazdu
*/
param : A :     c t :=
       1 2	1 10
       1 3	10 3
       2 4	1 1
       2 5  2 3
       3 2  1 2
       3 4	5 7
       3 5	12 3
       4 5 	10 1
       4 6	1 7
       5 6  2 2;

param from := 1;
param to := 6;       	
end;
